p cnf 12 50 
-1 7 3 0
-3 9 -2 0
1 -11 7 0
-8 4 3 0
5 -8 -12 0
-7 -9 10 0
-4 10 8 0
-2 4 1 0
5 12 -10 0
9 -1 -4 0
1 7 -4 0
-3 -5 -9 0
-2 3 -8 0
-9 5 -6 0
12 8 -11 0
-3 -9 7 0
-7 6 -9 0
10 5 1 0
-11 9 1 0
-10 -6 1 0
4 -11 -10 0
-2 8 10 0
-5 -4 -8 0
11 7 -8 0
12 10 -7 0
7 4 9 0
9 8 -11 0
11 -9 -6 0
10 -7 6 0
-2 5 8 0
5 6 -10 0
-2 -3 -11 0
-8 -6 4 0
-4 7 -2 0
-6 -10 7 0
5 1 11 0
2 11 -12 0
8 -4 1 0
-3 -12 -5 0
9 11 6 0
9 -5 -12 0
-6 -12 8 0
-12 2 -3 0
-7 -4 5 0
-11 -10 5 0
-12 -6 5 0
4 8 -10 0
10 -3 9 0
11 -8 -2 0
8 3 -7 0
